<?xml version = "1.0" encoding="UTF-8" standalone="yes"?>
<CPLEXSolution version="1.2">
 <header
   problemName="inst_11_cut_n7"
   objectiveValue="54.807692307692292"
   solutionTypeValue="1"
   solutionTypeString="basic"
   solutionStatusValue="1"
   solutionStatusString="optimal"
   solutionMethodString="dual"
   primalFeasible="1"
   dualFeasible="1"
   simplexIterations="1"
   writeLevel="1"/>
 <quality
   epRHS="9.9999999999999995e-07"
   epOpt="9.9999999999999995e-07"
   maxPrimalInfeas="0"
   maxDualInfeas="0"
   maxPrimalResidual="2.1316282072803006e-14"
   maxDualResidual="0"
   maxX="2.7692307692307878"
   maxPi="3.6538461538461529"
   maxSlack="256.19230769230768"
   maxRedCost="90"
   kappa="282.01577702872657"/>
 <linearConstraints>
  <constraint name="c0" index="0" status="BS" slack="240.53846153846155" dual="-0"/>
  <constraint name="c1" index="1" status="BS" slack="68.230769230769226" dual="-0"/>
  <constraint name="c2" index="2" status="BS" slack="237.53846153846155" dual="-0"/>
  <constraint name="c3" index="3" status="BS" slack="256.19230769230768" dual="-0"/>
  <constraint name="c4" index="4" status="BS" slack="46.384615384615387" dual="-0"/>
  <constraint name="c5" index="5" status="BS" slack="76.461538461538467" dual="-0"/>
  <constraint name="c6" index="6" status="BS" slack="8.7692307692307807" dual="-0"/>
  <constraint name="c7" index="7" status="BS" slack="5.3461538461538609" dual="-0"/>
  <constraint name="c8" index="8" status="BS" slack="38.807692307692321" dual="-0"/>
  <constraint name="c9" index="9" status="LL" slack="0" dual="-0"/>
  <constraint name="c10" index="10" status="BS" slack="153.30769230769232" dual="-0"/>
  <constraint name="cut_1" index="11" status="BS" slack="0.23076923076921929" dual="-0"/>
  <constraint name="cut_2" index="12" status="BS" slack="1.5384615384615543" dual="-0"/>
  <constraint name="cut_3" index="13" status="BS" slack="1.2307692307692548" dual="-0"/>
  <constraint name="cut_4" index="14" status="BS" slack="0.57692307692307487" dual="-0"/>
  <constraint name="cut_5" index="15" status="BS" slack="1.3846153846153939" dual="-0"/>
  <constraint name="cut_6" index="16" status="BS" slack="1.3076923076923173" dual="-0"/>
  <constraint name="cut_7" index="17" status="LL" slack="0" dual="3.6538461538461529"/>
 </linearConstraints>
 <variables>
  <variable name="x0" index="0" status="LL" value="0" reducedCost="-90"/>
  <variable name="x1" index="1" status="LL" value="0" reducedCost="-68.038461538461519"/>
  <variable name="x2" index="2" status="LL" value="0" reducedCost="-13.923076923076891"/>
  <variable name="x3" index="3" status="BS" value="0.57692307692307676" reducedCost="0"/>
  <variable name="s0" index="4" status="LL" value="0" reducedCost="0"/>
  <variable name="s1" index="5" status="LL" value="0" reducedCost="0"/>
  <variable name="s2" index="6" status="LL" value="0" reducedCost="0"/>
  <variable name="s3" index="7" status="LL" value="0" reducedCost="0"/>
  <variable name="s4" index="8" status="LL" value="0" reducedCost="0"/>
  <variable name="s5" index="9" status="LL" value="0" reducedCost="0"/>
  <variable name="s6" index="10" status="LL" value="0" reducedCost="0"/>
  <variable name="s7" index="11" status="LL" value="0" reducedCost="0"/>
  <variable name="s8" index="12" status="LL" value="0" reducedCost="0"/>
  <variable name="s9" index="13" status="BS" value="2.7692307692307878" reducedCost="0"/>
  <variable name="s10" index="14" status="LL" value="0" reducedCost="0"/>
 </variables>
 <objectiveValues>
  <objective index="0" name="" value="54.807692307692292"/>
 </objectiveValues>
</CPLEXSolution>
